
******************************************************************************
This program contains Ipopt, a library for large-scale nonlinear optimization.
 Ipopt is released as open source code under the Eclipse Public License (EPL).
         For more information visit http://projects.coin-or.org/Ipopt

This version of Ipopt was compiled from source code available at
    https://github.com/IDAES/Ipopt as part of the Institute for the Design of
    Advanced Energy Systems Process Systems Engineering Framework (IDAES PSE
    Framework) Copyright (c) 2018-2019. See https://github.com/IDAES/idaes-pse.

This version of Ipopt was compiled using HSL, a collection of Fortran codes
    for large-scale scientific computation.  All technical papers, sales and
    publicity material resulting from use of the HSL codes within IPOPT must
    contain the following acknowledgement:
        HSL, a collection of Fortran codes for large-scale scientific
        computation. See http://www.hsl.rl.ac.uk.
******************************************************************************

This is Ipopt version 3.13.2, running with linear solver ma27.

Number of nonzeros in equality constraint Jacobian...:      808
Number of nonzeros in inequality constraint Jacobian.:        0
Number of nonzeros in Lagrangian Hessian.............:      702

Total number of variables............................:      351
                     variables with only lower bounds:      108
                variables with lower and upper bounds:      189
                     variables with only upper bounds:        0
Total number of equality constraints.................:      350
Total number of inequality constraints...............:        0
        inequality constraints with only lower bounds:        0
   inequality constraints with lower and upper bounds:        0
        inequality constraints with only upper bounds:        0

iter    objective    inf_pr   inf_du lg(mu)  ||d||  lg(rg) alpha_du alpha_pr  ls
   0  0.0000000e+00 3.28e+00 8.88e-16  -1.0 0.00e+00    -  0.00e+00 0.00e+00   0
   1  9.8154405e-03 3.00e+00 5.26e+04  -1.0 6.43e+04    -  3.70e-02 1.08e-01h  1
   2  1.3448415e-02 2.94e+00 5.15e+04  -1.0 5.74e+04    -  1.31e-01 2.05e-02h  1
   3  1.4536660e-02 2.93e+00 5.13e+04  -1.0 1.23e+05    -  8.11e-01 4.90e-03h  1
   4  2.0489761e+00 1.86e+00 4.33e+04  -1.0 1.26e+05    -  2.03e-01 9.90e-01h  1
   5  2.7929956e+00 1.13e+00 1.61e+04  -1.0 3.01e+04    -  3.76e-01 9.90e-01h  1
   6  2.8012050e+00 4.13e-01 1.81e+04  -1.0 8.22e+02    -  3.43e-01 4.95e-01h  2
   7  2.8095345e+00 4.57e-02 9.60e+03  -1.0 4.16e+02    -  9.49e-01 9.90e-01h  1
   8  2.8101013e+00 2.85e-03 9.53e+01  -1.0 2.06e+01    -  9.90e-01 9.90e-01h  1
   9  2.8413860e+00 9.12e-05 8.20e+03  -1.0 1.05e+03    -  9.90e-01 9.90e-01h  1
iter    objective    inf_pr   inf_du lg(mu)  ||d||  lg(rg) alpha_du alpha_pr  ls
  10  2.8096435e+00 1.02e-04 3.29e+07  -3.8 1.17e+03    -  1.00e+00 9.03e-01f  1
  11  2.8097143e+00 2.86e-08 5.38e+05  -3.8 2.60e+00    -  1.00e+00 1.00e+00h  1
In iteration 11, 27 Slacks too small, adjusting variable bounds
  12  2.8097139e+00 4.81e-12 3.54e+09  -3.8 1.37e-02    -  1.00e+00 1.00e+00h  1
  13  2.8097139e+00 1.62e-13 1.89e-03  -3.8 2.08e-06    -  1.00e+00 1.00e+00h  1
  14  2.8095635e+00 4.74e-13 1.10e+06  -9.0 5.04e+00    -  1.00e+00 1.00e+00F  1
  15  2.8095635e+00 8.91e-13 2.76e-10  -9.0 3.05e-05    -  1.00e+00 1.00e+00f  1

Number of Iterations....: 15

                                   (scaled)                 (unscaled)
Objective...............:   2.8095634875907449e+00    2.8095634875907449e+00
Dual infeasibility......:   2.7648638933897018e-10    2.7648638933897018e-10
Constraint violation....:   8.9062091035430058e-13    8.9062091035430058e-13
Complementarity.........:   9.0909099699153100e-10    9.0909099699153100e-10
Overall NLP error.......:   4.3929750232785460e-11    9.0909099699153100e-10


Number of objective function evaluations             = 20
Number of objective gradient evaluations             = 16
Number of equality constraint evaluations            = 20
Number of inequality constraint evaluations          = 0
Number of equality constraint Jacobian evaluations   = 16
Number of inequality constraint Jacobian evaluations = 0
Number of Lagrangian Hessian evaluations             = 15
Total CPU secs in IPOPT (w/o function evaluations)   =      0.035
Total CPU secs in NLP function evaluations           =      0.306

EXIT: Optimal Solution Found.
